Starting solution of the Linear programming relaxation problem using Primal Simplex

Coin0506I Presolve 8947 (-8916) rows, 465 (0) columns and 18762 (-17832) elements
Clp1000I sum of infeasibilities 3.36695e-05 - average 3.76321e-09, 319 fixed columns
Coin0506I Presolve 774 (-8173) rows, 146 (-319) columns and 1778 (-16984) elements
Clp0006I 0  Obj 665.5416 Primal inf 1.113917e-05 (14) Dual inf 6.5e+09 (137)
Clp0029I End of values pass after 146 iterations
Clp0014I Perturbing problem by 0.001% of 1.0000001 - largest nonzero change 2.9976735e-05 ( 0.0014988368%) - largest zero change 2.8167904e-05
Clp0000I Optimal - objective value 664.92832
Clp0000I Optimal - objective value 664.92832
Coin0511I After Postsolve, objective 664.92832, infeasibilities - dual 0 (0), primal 0 (0)
Clp0006I 0  Obj 664.92832
Clp0000I Optimal - objective value 664.92832
Clp0000I Optimal - objective value 664.92832
Clp0000I Optimal - objective value 664.92832
Coin0511I After Postsolve, objective 664.92832, infeasibilities - dual 0 (0), primal 0 (0)
Clp0032I Optimal objective 664.9283194 - 0 iterations time 0.282, Presolve 0.01, Idiot 0.27

Starting MIP optimization
Modell wird erstellt...
Suche Startlösung...
None
Suche optimale Lösung...
OptimizationStatus.INFEASIBLE
C:\Users\Philip\Documents\programmieren\python\bwinf41-2\weniger-krumme-touren\beispiele\random\30\301.txt
Startlösung ist optimal!
Cbc0045I MIPStart provided solution with cost 710.268
Cbc0012I Integer solution of 710.26837 found by Reduced search after 0 iterations and 0 nodes (0.05 seconds)
Cbc0031I 14 added rows had average density of 27.928571
Cbc0013I At root node, 14 cuts changed objective from 664.92832 to 690.09818 in 2 passes
Cbc0014I Cut generator 0 (LazyConstraints) - 2 row cuts average 105.0 elements, 0 column cuts (0 active)  in 0.025 seconds - new frequency is 1
Cbc0014I Cut generator 1 (Probing) - 57 row cuts average 2.6 elements, 6 column cuts (6 active)  in 0.010 seconds - new frequency is 1
Cbc0014I Cut generator 2 (Gomory) - 9 row cuts average 81.8 elements, 0 column cuts (0 active)  in 0.003 seconds - new frequency is 1
Cbc0014I Cut generator 3 (Knapsack) - 0 row cuts average 0.0 elements, 0 column cuts (0 active)  in 0.006 seconds - new frequency is -100
Cbc0014I Cut generator 4 (MixedIntegerRounding2) - 0 row cuts average 0.0 elements, 0 column cuts (0 active)  in 0.005 seconds - new frequency is -100
Cbc0014I Cut generator 6 (TwoMirCuts) - 35 row cuts average 59.3 elements, 0 column cuts (0 active)  in 0.015 seconds - new frequency is 1
Cbc0014I Cut generator 7 (ZeroHalf) - 0 row cuts average 0.0 elements, 0 column cuts (0 active)  in 0.234 seconds - new frequency is -100
Cbc0001I Search completed - best objective 710.2683680510363, took 235 iterations and 4 nodes (0.48 seconds)
Cbc0032I Strong branching done 40 times (649 iterations), fathomed 2 nodes and fixed 5 variables
Cbc0035I Maximum depth 1, 437 variables fixed on reduced cost
Total time (CPU seconds):       0.51   (Wallclock seconds):       0.51

